21 86 68 89 1 11 28 30 69 96 31 8 70 55 44 14 4 23 27 71 16 64 90 50 0 67 82 26 61 35 7 75 58 22 29 13 38 32 65 56 40 88 87 66 63 77 97 99 24 34 37 5 43 57 17 39 73 36 80 48 51 83 9 47 92 46 79 49 94 6 54 93 84 53 3 33 2 52 81 60 42 72 18 20 41 15 10 95 59 62 76 74 91 85 98 45 19 12 78 25 

